n_res = 6;
rc = [ 14, 12, 9, 12, 11, 13 ];
n_tasks = 25;
d = [ 10, 4, 5, 8, 1, 1, 1, 1, 3, 6, 1, 1, 9, 1, 2, 9, 1, 3, 7, 7, 1, 1, 1, 5, 3 ];
rr = [| 1, 8, 0, 4, 0, 6, 0, 0, 4, 7, 9, 0, 10, 0, 0, 5, 0, 0, 0, 2, 10, 9, 5, 0, 5
      | 0, 9, 7, 3, 5, 0, 0, 0, 1, 5, 5, 0, 9, 1, 0, 1, 3, 0, 0, 10, 1, 7, 0, 2, 0
      | 5, 0, 8, 3, 0, 0, 3, 0, 4, 4, 0, 8, 2, 0, 2, 0, 0, 3, 5, 3, 0, 3, 0, 1, 0
      | 0, 5, 2, 9, 0, 8, 1, 4, 0, 3, 0, 2, 0, 0, 0, 7, 6, 5, 0, 0, 7, 4, 10, 0, 0
      | 0, 0, 0, 5, 0, 1, 7, 1, 0, 0, 0, 9, 2, 9, 8, 6, 10, 0, 9, 0, 0, 0, 0, 0, 1
      | 5, 10, 3, 10, 5, 0, 0, 0, 3, 3, 7, 1, 3, 4, 0, 2, 0, 3, 0, 0, 0, 0, 0, 10, 10 |];
suc = [ { 4 },
	{ 6, 7 },
	{ 5 },
	{ 9, 10, 11 },
	{ 8 },
	{  },
	{  },
	{ 15 },
	{ 12 },
	{ 13, 14 },
	{  },
	{ 16 },
	{ 18 },
	{ 19 },
	{ 17 },
	{ 20, 21, 22 },
	{ 23 },
	{  },
	{  },
	{ 24 },
	{ 25 },
	{ 25 },
	{ 24 },
	{  },
	{  } ];
t_max = 92;
deadline = [| 4, 0, 1
 | 31, 0, 3
 | 15, 4, 1
 | 9, 4, 0
 | 38, 1, 1
 | 2, 4, 2
 | 18, 3, 3
 | 2, 2, 1
 | 10, 4, 2
 | 28, 4, 0
 | 44, 0, 0
 | 9, 2, 1
 | 29, 4, 0
 | 21, 4, 4
 | 2, 4, 2
 | 4, 2, 3
 | 8, 2, 2
 | 30, 3, 3
 | 16, 1, 0
 | 21, 3, 1
 | 19, 3, 0
 | 41, 3, 1
 | 21, 0, 2
 | 25, 0, 0
 | 21, 1, 2 |];
